ndtset 1
xcart
  0.000000000000000E+000 0.000000000000000E+000 7.71191
 4.18912260765629 0.000000000000000E+000 5.18377
 4.18912260765629 0.000000000000000E+000 0.740539
 2.09456130382814 -3.62788659779806 -0.740539
 2.09456130382814 -3.62788659779806 -5.18377
 0.000000000000000E+000 0.000000000000000E+000 -6.664778
 0.000000000000000E+000 0.000000000000000E+000 -9.466089




chkprim     1 
acell       7.255773198 7.255773198 35
rprim       0.8660254037844385  -.5 0.0
            0       1.0   0.0
            0.0     0.0   1.0 

ntypat      3
znucl       33 14 1

natom       7
typat       1*1 5*2 1*3

so_typat       2 2 2
nspinor        2 2 2
toldfe1        1.0d-6
kptopt1        1
nshiftk1       1
shiftk1        0. 0. 0.5

nsppol         1
 
ngkpt1        8 8 2


ecut          5


diemac       12



nstep1              200
prtwf1              1 
prtden1             0


prtvol -1
