# This is the input file used to set up abinit calculations
# Comments are just accepted at the beggining of a line, otherwise it will fail. 
# You must not remove the lines that appear as "Section: "
######################################################

######################################################
  Section: Coordinate System: xcart->Catresian xred->Reduced xang->Angstroms
######################################################

xred

######################################################
  Section: Pseudo-potential files
######################################################

/home/bms/tiniba/ver2.0/psp/31ga.3.hgh
/home/bms/tiniba/ver2.0/psp/33as.5.hgh

######################################################
  Section: Common Variables
######################################################

# GaAs Bulk

prtvol    10

### Definition of the unit cell
chksymbreak 0
chkprim     1 
# a0=5.65  a0b = 10.684 Bohr
acell     10.684 10.684 10.684
rprim     0.0  0.5  0.5 
          0.5  0.0  0.5
          0.5  0.5  0.0 

### Definition of the atom types
ntypat    2
znucl     31 33

### Definition of the atoms
natom     2 
typat     1*1 1*2

## spin-orbit
so_psp       0 0
nspinor      1 1 
##
toldfe1        1.0d-9
kptopt1        1
nshiftk1       4
shiftk1        0.5 0.5 0.5
               0.5 0.0 0.0
               0.0 0.5 0.0
               0.0 0.0 0.5

nsppol         1
 
## change for convergence
ngkpt1        11 11 11

### Definition of the planewave basis set

ecut   20

### Definition of the SCF procedure

diemac       10.9

###################################################
  Section: Scf variables
###################################################

### Dataset 1 : usual self-consistent calculation
nstep1              200
prtwf1              1 
prtden1             0
nband1          32

###################################################
  Section: Optic variables
###################################################

### Dataset 2 : optics and what not
enunit2         1 
getden2        -1
irdwfk1         1
iscf2          -2
kptnrm2         1.0 
kptopt2         0
nband2          32
nstep1          0
nstep2          200 
prtden1         1
prtwf2          1
tolwfr2         1.0d-14
