ndtset 1
xred
  .25 .25 .25




chksymbreak 0
chkprim     1 
acell       10.26121212  10.26121212 10.26121212 
rprim       0.0     0.5   0.5 
            0.5     0.0   0.5
            0.5     0.5   0.0 

ntypat      1
znucl       14

natom       2 
typat       1*1 1*1

so_psp       0 0
nspinor      1 1 
toldfe1        1.0d-6
kptopt1        1
nshiftk1       4
shiftk1        0.5 0.5 0.5
               0.5 0.0 0.0
               0.0 0.5 0.0
               0.5 0.0 0.5

nsppol         1
 
ngkpt1        8 8 8


ecut          10


diemac       10.9



nstep1              200
prtwf1              1 
prtden1             0


prtvol -1
